6 500000000000019
0 83333333333381 83333333333351 83333333333380 83333333333403 83333333333391
83333333333381 0 83333333333353 83333333333418 83333333333346 83333333333378
83333333333351 83333333333353 0 83333333333427 83333333333336 83333333333337
83333333333380 83333333333418 83333333333427 0 83333333333381 83333333333344
83333333333403 83333333333346 83333333333336 83333333333381 0 83333333333407
83333333333391 83333333333378 83333333333337 83333333333344 83333333333407 0
